(set-logic ALL)
(declare-fun var0 () String)
(assert (str.in_re var0 (re.++ (re.+ (re.+ (str.to_re "00"))) (re.++ (re.* (re.+ (str.to_re "11"))) (re.++ (re.* (re.+ (str.to_re "222"))) (re.++ (re.* (re.* (str.to_re "333"))) (re.++ (re.+ (re.* (str.to_re "4"))) (re.++ (re.union (re.+ (str.to_re "555")) (re.+ (str.to_re "6"))) (re.++ (re.+ (re.* (str.to_re "7"))) (re.++ (re.union (re.union (str.to_re "8") (str.to_re "99")) (re.union (str.to_re "a") (str.to_re "b"))) (re.++ (re.* (re.union (str.to_re "cc") (str.to_re "d"))) (re.++ (re.union (re.union (str.to_re "ee") (str.to_re "f")) (re.union (str.to_re "ggg") (str.to_re "hhh"))) (re.++ (re.+ (re.+ (str.to_re "iii"))) (re.++ (re.+ (re.union (str.to_re "jjj") (str.to_re "k"))) (re.++ (re.+ (re.* (str.to_re "ll"))) (re.++ (re.+ (re.union (str.to_re "mmm") (str.to_re "nnn"))) (re.++ (re.+ (re.+ (str.to_re "ooo"))) (re.++ (re.union (re.+ (str.to_re "ppp")) (re.+ (str.to_re "qq"))) (re.++ (re.union (re.* (str.to_re "rrr")) (re.* (str.to_re "s"))) (re.++ (re.union (re.+ (str.to_re "t")) (re.+ (str.to_re "uuu"))) (re.++ (re.* (re.* (str.to_re "vv"))) (re.++ (re.union (re.* (str.to_re "ww")) (re.* (str.to_re "xxx"))) (re.++ (re.+ (re.+ (str.to_re "yy"))) (re.++ (re.union (re.+ (str.to_re "z")) (re.+ (str.to_re "AA"))) (re.++ (re.* (re.* (str.to_re "BBB"))) (re.++ (re.union (re.* (str.to_re "CCC")) (re.* (str.to_re "D"))) (re.++ (re.* (re.union (str.to_re "E") (str.to_re "FFF"))) (re.++ (re.union (re.+ (str.to_re "GG")) (re.+ (str.to_re "HHH"))) (re.++ (re.* (re.union (str.to_re "III") (str.to_re "J"))) (re.++ (re.union (re.union (str.to_re "KKK") (str.to_re "LL")) (re.union (str.to_re "M") (str.to_re "NNN"))) (re.++ (re.+ (re.+ (str.to_re "OO"))) (re.++ (re.+ (re.* (str.to_re "P"))) (re.++ (re.* (re.+ (str.to_re "QQQ"))) (re.++ (re.* (re.union (str.to_re "R") (str.to_re "SS"))) (re.++ (re.* (re.* (str.to_re "TTT"))) (re.++ (re.+ (re.+ (str.to_re "UUU"))) (re.++ (re.* (re.union (str.to_re "VV") (str.to_re "WWW"))) (re.++ (re.union (re.+ (str.to_re "XXX")) (re.+ (str.to_re "Y"))) (re.++ (re.union (re.* (str.to_re "ZZZ")) (re.* (str.to_re "!"))) (re.++ (re.union (re.union (str.to_re """""") (str.to_re "##")) (re.union (str.to_re "$$") (str.to_re "%"))) (re.++ (re.+ (re.+ (str.to_re "&&"))) (re.++ (re.* (re.union (str.to_re "'''") (str.to_re "(("))) (re.++ (re.* (re.+ (str.to_re ")"))) (re.++ (re.union (re.* (str.to_re "***")) (re.* (str.to_re "+++"))) (re.++ (re.* (re.* (str.to_re ",,"))) (re.++ (re.union (re.* (str.to_re "--")) (re.* (str.to_re ".."))) (re.++ (re.+ (re.* (str.to_re "//"))) (re.++ (re.union (re.* (str.to_re "::")) (re.* (str.to_re ";;;"))) (re.++ (re.* (re.union (str.to_re "<<<") (str.to_re "==="))) (re.++ (re.* (re.union (str.to_re ">>>") (str.to_re "??"))) (re.++ (re.* (re.+ (str.to_re "@@@"))) (re.++ (re.union (re.union (str.to_re "[[") (str.to_re "\\\\\\")) (re.union (str.to_re "]]") (str.to_re "^^"))) (re.++ (re.* (re.+ (str.to_re "___"))) (re.++ (re.union (re.union (str.to_re "```") (str.to_re "{{")) (re.union (str.to_re "|||") (str.to_re "}}"))) (re.+ (re.union (str.to_re "~~") (str.to_re "00")))))))))))))))))))))))))))))))))))))))))))))))))))))))))
(check-sat)